50
547 125 281 431 17 499 953 429 835 961 21 14 437 960 455 798 672 46 466 644 160 133 668 301 691 278 77 375 788 349 546 774 278 867 42 451 242 171 900 167 781 472 946 886 17 952 559 727 106 719 
11526 2633 5921 9081 358 10514 20080 9039 17594 20249 442 294 9208 20228 9587 16814 14159 969 9819 13569 3371 2802 14075 6342 14560 5857 1622 7901 16604 7353 11504 16309 5857 18268 884 9503 5099 3603 18964 3518 16456 9945 19933 18669 358 20059 11778 15318 2233 15150 
11888
